(set-info :smt-lib-version 2.6)
(set-logic QF_LRA)
(set-info :source |
SAL benchmark suite.  Created at SRI by Bruno Dutertre, John Rushby, Maria
Sorea, and Leonardo de Moura.  Contact demoura@csl.sri.com for more
information.

This benchmark was automatically translated into SMT-LIB format from
CVC format using CVC Lite
|)
(set-info :category "industrial")
(set-info :status unsat)
(declare-fun x_0 () Bool)
(declare-fun x_1 () Bool)
(declare-fun x_2 () Bool)
(declare-fun x_3 () Bool)
(declare-fun x_4 () Bool)
(declare-fun x_5 () Bool)
(declare-fun x_6 () Bool)
(declare-fun x_7 () Bool)
(declare-fun x_8 () Bool)
(declare-fun x_9 () Real)
(declare-fun x_10 () Real)
(declare-fun x_11 () Bool)
(declare-fun x_12 () Real)
(declare-fun x_13 () Real)
(declare-fun x_14 () Real)
(declare-fun x_15 () Bool)
(declare-fun x_16 () Bool)
(declare-fun x_17 () Bool)
(declare-fun x_18 () Bool)
(declare-fun x_19 () Real)
(declare-fun x_20 () Bool)
(declare-fun x_21 () Real)
(declare-fun x_22 () Real)
(declare-fun x_23 () Bool)
(declare-fun x_24 () Bool)
(declare-fun x_25 () Bool)
(declare-fun x_26 () Real)
(declare-fun x_27 () Bool)
(declare-fun x_28 () Real)
(declare-fun x_29 () Real)
(declare-fun x_30 () Real)
(declare-fun x_31 () Bool)
(declare-fun x_32 () Bool)
(declare-fun x_33 () Bool)
(declare-fun x_34 () Real)
(declare-fun x_35 () Bool)
(declare-fun x_36 () Bool)
(declare-fun x_37 () Real)
(declare-fun x_38 () Real)
(declare-fun x_39 () Real)
(declare-fun x_40 () Bool)
(declare-fun x_41 () Real)
(declare-fun x_42 () Bool)
(declare-fun x_43 () Bool)
(declare-fun x_44 () Real)
(declare-fun x_45 () Bool)
(declare-fun x_46 () Real)
(declare-fun x_47 () Bool)
(declare-fun x_48 () Real)
(declare-fun x_49 () Bool)
(declare-fun x_50 () Real)
(declare-fun x_51 () Bool)
(declare-fun x_52 () Bool)
(declare-fun x_53 () Bool)
(declare-fun x_54 () Bool)
(declare-fun x_55 () Bool)
(declare-fun x_56 () Bool)
(declare-fun x_57 () Bool)
(declare-fun x_58 () Bool)
(declare-fun x_59 () Real)
(declare-fun x_60 () Real)
(declare-fun x_61 () Bool)
(declare-fun x_62 () Bool)
(declare-fun x_63 () Bool)
(declare-fun x_64 () Bool)
(declare-fun x_65 () Bool)
(declare-fun x_66 () Real)
(declare-fun x_67 () Real)
(declare-fun x_68 () Bool)
(declare-fun x_69 () Real)
(declare-fun x_70 () Real)
(declare-fun x_71 () Bool)
(declare-fun x_72 () Real)
(declare-fun x_73 () Bool)
(declare-fun x_74 () Real)
(declare-fun x_75 () Bool)
(declare-fun x_76 () Bool)
(declare-fun x_77 () Real)
(declare-fun x_78 () Real)
(declare-fun x_79 () Real)
(declare-fun x_80 () Bool)
(declare-fun x_81 () Real)
(declare-fun x_82 () Bool)
(declare-fun x_83 () Bool)
(declare-fun x_84 () Real)
(declare-fun x_85 () Bool)
(declare-fun x_86 () Real)
(declare-fun x_87 () Bool)
(declare-fun x_88 () Real)
(declare-fun x_89 () Bool)
(declare-fun x_90 () Real)
(declare-fun x_91 () Bool)
(declare-fun x_92 () Bool)
(declare-fun x_93 () Bool)
(declare-fun x_94 () Bool)
(declare-fun x_95 () Bool)
(declare-fun x_96 () Bool)
(declare-fun x_97 () Bool)
(declare-fun x_98 () Bool)
(declare-fun x_99 () Real)
(declare-fun x_100 () Real)
(declare-fun x_101 () Bool)
(declare-fun x_102 () Bool)
(declare-fun x_103 () Bool)
(declare-fun x_104 () Bool)
(declare-fun x_105 () Bool)
(declare-fun x_106 () Real)
(declare-fun x_107 () Real)
(declare-fun x_108 () Bool)
(declare-fun x_109 () Real)
(declare-fun x_110 () Real)
(declare-fun x_111 () Bool)
(declare-fun x_112 () Real)
(declare-fun x_113 () Bool)
(declare-fun x_114 () Real)
(declare-fun x_115 () Bool)
(declare-fun x_116 () Bool)
(declare-fun x_117 () Real)
(declare-fun x_118 () Real)
(declare-fun x_119 () Real)
(declare-fun x_120 () Bool)
(declare-fun x_121 () Real)
(declare-fun x_122 () Bool)
(declare-fun x_123 () Bool)
(declare-fun x_124 () Real)
(declare-fun x_125 () Bool)
(declare-fun x_126 () Real)
(declare-fun x_127 () Bool)
(declare-fun x_128 () Real)
(declare-fun x_129 () Bool)
(declare-fun x_130 () Real)
(declare-fun x_131 () Bool)
(declare-fun x_132 () Bool)
(declare-fun x_133 () Bool)
(declare-fun x_134 () Bool)
(declare-fun x_135 () Bool)
(declare-fun x_136 () Bool)
(declare-fun x_137 () Bool)
(declare-fun x_138 () Bool)
(declare-fun x_139 () Real)
(declare-fun x_140 () Real)
(declare-fun x_141 () Bool)
(declare-fun x_142 () Bool)
(declare-fun x_143 () Bool)
(declare-fun x_144 () Bool)
(declare-fun x_145 () Bool)
(declare-fun x_146 () Real)
(declare-fun x_147 () Real)
(declare-fun x_148 () Bool)
(declare-fun x_149 () Real)
(declare-fun x_150 () Real)
(declare-fun x_151 () Bool)
(declare-fun x_152 () Real)
(declare-fun x_153 () Bool)
(declare-fun x_154 () Real)
(declare-fun x_155 () Bool)
(declare-fun x_156 () Bool)
(declare-fun x_157 () Real)
(declare-fun x_158 () Real)
(declare-fun x_159 () Real)
(declare-fun x_160 () Bool)
(declare-fun x_161 () Real)
(declare-fun x_162 () Bool)
(declare-fun x_163 () Bool)
(declare-fun x_164 () Real)
(declare-fun x_165 () Bool)
(declare-fun x_166 () Real)
(declare-fun x_167 () Bool)
(declare-fun x_168 () Real)
(declare-fun x_169 () Bool)
(declare-fun x_170 () Real)
(declare-fun x_171 () Bool)
(declare-fun x_172 () Bool)
(declare-fun x_173 () Bool)
(declare-fun x_174 () Bool)
(declare-fun x_175 () Bool)
(declare-fun x_176 () Bool)
(declare-fun x_177 () Bool)
(declare-fun x_178 () Bool)
(declare-fun x_179 () Real)
(declare-fun x_180 () Real)
(declare-fun x_181 () Bool)
(declare-fun x_182 () Bool)
(declare-fun x_183 () Bool)
(declare-fun x_184 () Bool)
(declare-fun x_185 () Bool)
(declare-fun x_186 () Real)
(declare-fun x_187 () Real)
(declare-fun x_188 () Bool)
(declare-fun x_189 () Real)
(declare-fun x_190 () Real)
(declare-fun x_191 () Bool)
(declare-fun x_192 () Real)
(assert (let ((?v_25 (< x_128 x_140)) (?v_62 (<= x_118 x_117)) (?v_32 (< x_124 50)) (?v_34 (< x_124 20)) (?v_55 (= x_154 x_10))) (let ((?v_60 (and (= x_153 false) ?v_55)) (?v_31 (and x_155 x_156)) (?v_66 (= x_157 x_117)) (?v_65 (= x_158 x_118)) (?v_45 (not x_132))) (let ((?v_49 (and x_131 ?v_45)) (?v_51 (= x_159 x_119)) (?v_29 (and (= x_160 false) (= x_161 x_10))) (?v_19 (not x_115))) (let ((?v_24 (and ?v_19 x_116)) (?v_63 (not x_163))) (let ((?v_68 (and x_162 ?v_63)) (?v_18 (= x_164 x_124)) (?v_30 (and x_115 x_116)) (?v_69 (or x_122 x_123)) (?v_0 (not x_116))) (let ((?v_39 (or x_115 ?v_0)) (?v_43 (< x_124 10)) (?v_40 (<= x_124 0)) (?v_50 (and (= x_165 false) (= x_166 x_10))) (?v_47 (= x_167 false)) (?v_23 (= x_168 x_128)) (?v_48 (and (= x_169 false) (= x_170 x_10))) (?v_54 (not x_172))) (let ((?v_46 (and x_171 ?v_54)) (?v_41 (or ?v_19 ?v_0)) (?v_52 (not x_131))) (let ((?v_56 (or ?v_52 x_132)) (?v_8 (and (and (and (= x_173 false) (= x_174 x_5)) (= x_175 x_6)) (= x_176 x_7))) (?v_9 (= x_177 false)) (?v_64 (and (= x_178 false) (= x_179 x_10))) (?v_22 (= x_180 x_140)) (?v_67 (not x_122)) (?v_58 (not x_123))) (let ((?v_61 (and ?v_67 ?v_58)) (?v_26 (= x_181 false)) (?v_28 (not x_156))) (let ((?v_20 (and x_155 ?v_28)) (?v_2 (not x_183))) (let ((?v_4 (and x_182 ?v_2)) (?v_3 (not x_184))) (let ((?v_10 (and (and ?v_4 ?v_3) x_185)) (?v_5 (or x_182 x_183)) (?v_1 (not x_185)) (?v_6 (and x_182 x_183))) (let ((?v_11 (and (and ?v_6 x_184) ?v_1)) (?v_7 (or x_182 ?v_2)) (?v_13 (and (and ?v_4 x_184) ?v_1)) (?v_15 (and (and ?v_6 ?v_3) ?v_1))) (let ((?v_37 (or ?v_10 (and (or (or ?v_5 x_184) ?v_1) (or ?v_11 (and (or (or ?v_7 ?v_3) x_185) (or ?v_13 (and (or (or ?v_5 ?v_3) x_185) (or ?v_15 (and (and (and (and (or (or ?v_7 x_184) x_185) x_182) ?v_2) ?v_3) ?v_1))))))))) (?v_42 (not ?v_32)) (?v_70 (not ?v_62)) (?v_38 (not ?v_25)) (?v_21 (= x_181 true)) (?v_44 (not ?v_34)) (?v_96 (< x_88 x_100)) (?v_126 (<= x_78 x_77)) (?v_100 (< x_84 50)) (?v_102 (< x_84 20)) (?v_120 (= x_114 x_10))) (let ((?v_124 (and (= x_113 false) ?v_120)) (?v_129 (= x_117 x_77)) (?v_128 (= x_118 x_78)) (?v_113 (not x_92))) (let ((?v_116 (and x_91 ?v_113)) (?v_118 (= x_119 x_79)) (?v_98 (and (= x_120 false) (= x_121 x_10))) (?v_90 (not x_75))) (let ((?v_95 (and ?v_90 x_76)) (?v_131 (and x_122 ?v_58)) (?v_89 (= x_124 x_84)) (?v_99 (and x_75 x_76)) (?v_132 (or x_82 x_83)) (?v_71 (not x_76))) (let ((?v_107 (or x_75 ?v_71)) (?v_111 (< x_84 10)) (?v_108 (<= x_84 0)) (?v_117 (and (= x_125 false) (= x_126 x_10))) (?v_114 (= x_127 false)) (?v_94 (= x_128 x_88)) (?v_115 (and (= x_129 false) (= x_130 x_10))) (?v_109 (or ?v_90 ?v_71)) (?v_119 (not x_91))) (let ((?v_121 (or ?v_119 x_92)) (?v_79 (and (and (and (= x_133 false) (= x_134 x_5)) (= x_135 x_6)) (= x_136 x_7))) (?v_80 (= x_137 false)) (?v_127 (and (= x_138 false) (= x_139 x_10))) (?v_93 (= x_140 x_100)) (?v_130 (not x_82)) (?v_123 (not x_83))) (let ((?v_125 (and ?v_130 ?v_123)) (?v_97 (= x_141 false)) (?v_91 (and x_115 ?v_0)) (?v_73 (not x_143))) (let ((?v_75 (and x_142 ?v_73)) (?v_74 (not x_144))) (let ((?v_81 (and (and ?v_75 ?v_74) x_145)) (?v_76 (or x_142 x_143)) (?v_72 (not x_145)) (?v_77 (and x_142 x_143))) (let ((?v_82 (and (and ?v_77 x_144) ?v_72)) (?v_78 (or x_142 ?v_73)) (?v_84 (and (and ?v_75 x_144) ?v_72)) (?v_86 (and (and ?v_77 ?v_74) ?v_72))) (let ((?v_105 (or ?v_81 (and (or (or ?v_76 x_144) ?v_72) (or ?v_82 (and (or (or ?v_78 ?v_74) x_145) (or ?v_84 (and (or (or ?v_76 ?v_74) x_145) (or ?v_86 (and (and (and (and (or (or ?v_78 x_144) x_145) x_142) ?v_73) ?v_74) ?v_72))))))))) (?v_110 (not ?v_100)) (?v_133 (not ?v_126)) (?v_106 (not ?v_96)) (?v_92 (= x_141 true)) (?v_112 (not ?v_102)) (?v_159 (< x_48 x_60)) (?v_189 (<= x_38 x_37)) (?v_163 (< x_44 50)) (?v_165 (< x_44 20)) (?v_183 (= x_74 x_10))) (let ((?v_187 (and (= x_73 false) ?v_183)) (?v_192 (= x_77 x_37)) (?v_191 (= x_78 x_38)) (?v_176 (not x_52))) (let ((?v_179 (and x_51 ?v_176)) (?v_181 (= x_79 x_39)) (?v_161 (and (= x_80 false) (= x_81 x_10))) (?v_153 (not x_35))) (let ((?v_158 (and ?v_153 x_36)) (?v_194 (and x_82 ?v_123)) (?v_152 (= x_84 x_44)) (?v_162 (and x_35 x_36)) (?v_195 (or x_42 x_43)) (?v_134 (not x_36))) (let ((?v_170 (or x_35 ?v_134)) (?v_174 (< x_44 10)) (?v_171 (<= x_44 0)) (?v_180 (and (= x_85 false) (= x_86 x_10))) (?v_177 (= x_87 false)) (?v_157 (= x_88 x_48)) (?v_178 (and (= x_89 false) (= x_90 x_10))) (?v_172 (or ?v_153 ?v_134)) (?v_182 (not x_51))) (let ((?v_184 (or ?v_182 x_52)) (?v_142 (and (and (and (= x_93 false) (= x_94 x_5)) (= x_95 x_6)) (= x_96 x_7))) (?v_143 (= x_97 false)) (?v_190 (and (= x_98 false) (= x_99 x_10))) (?v_156 (= x_100 x_60)) (?v_193 (not x_42)) (?v_186 (not x_43))) (let ((?v_188 (and ?v_193 ?v_186)) (?v_160 (= x_101 false)) (?v_154 (and x_75 ?v_71)) (?v_136 (not x_103))) (let ((?v_138 (and x_102 ?v_136)) (?v_137 (not x_104))) (let ((?v_144 (and (and ?v_138 ?v_137) x_105)) (?v_139 (or x_102 x_103)) (?v_135 (not x_105)) (?v_140 (and x_102 x_103))) (let ((?v_145 (and (and ?v_140 x_104) ?v_135)) (?v_141 (or x_102 ?v_136)) (?v_147 (and (and ?v_138 x_104) ?v_135)) (?v_149 (and (and ?v_140 ?v_137) ?v_135))) (let ((?v_168 (or ?v_144 (and (or (or ?v_139 x_104) ?v_135) (or ?v_145 (and (or (or ?v_141 ?v_137) x_105) (or ?v_147 (and (or (or ?v_139 ?v_137) x_105) (or ?v_149 (and (and (and (and (or (or ?v_141 x_104) x_105) x_102) ?v_136) ?v_137) ?v_135))))))))) (?v_173 (not ?v_163)) (?v_196 (not ?v_189)) (?v_169 (not ?v_159)) (?v_155 (= x_101 true)) (?v_175 (not ?v_165)) (?v_222 (< x_13 x_14)) (?v_252 (<= x_29 x_30)) (?v_226 (< x_12 50)) (?v_228 (< x_12 20)) (?v_246 (= x_34 x_10))) (let ((?v_250 (and (= x_33 false) ?v_246)) (?v_255 (= x_37 x_30)) (?v_254 (= x_38 x_29)) (?v_240 (not x_24))) (let ((?v_243 (and x_23 ?v_240)) (?v_245 (= x_39 x_22)) (?v_224 (and (= x_40 false) (= x_41 x_10))) (?v_197 (not x_15))) (let ((?v_221 (and ?v_197 x_16)) (?v_257 (and x_42 ?v_186)) (?v_216 (= x_44 x_12)) (?v_225 (and x_15 x_16)) (?v_259 (or x_31 x_32)) (?v_198 (not x_16))) (let ((?v_233 (or x_15 ?v_198)) (?v_237 (< x_12 10)) (?v_234 (<= x_12 0)) (?v_244 (and (= x_45 false) (= x_46 x_10))) (?v_241 (= x_47 false)) (?v_220 (= x_48 x_13)) (?v_242 (and (= x_49 false) (= x_50 x_10))) (?v_235 (or ?v_197 ?v_198)) (?v_239 (not x_23))) (let ((?v_247 (or ?v_239 x_24)) (?v_206 (and (and (and (= x_53 false) (= x_54 x_5)) (= x_55 x_6)) (= x_56 x_7))) (?v_207 (= x_57 false)) (?v_253 (and (= x_58 false) (= x_59 x_10))) (?v_219 (= x_60 x_14)) (?v_256 (not x_31)) (?v_249 (not x_32))) (let ((?v_251 (and ?v_256 ?v_249)) (?v_223 (= x_61 false)) (?v_217 (and x_35 ?v_134)) (?v_200 (not x_63))) (let ((?v_202 (and x_62 ?v_200)) (?v_201 (not x_64))) (let ((?v_208 (and (and ?v_202 ?v_201) x_65)) (?v_203 (or x_62 x_63)) (?v_199 (not x_65)) (?v_204 (and x_62 x_63))) (let ((?v_209 (and (and ?v_204 x_64) ?v_199)) (?v_205 (or x_62 ?v_200)) (?v_211 (and (and ?v_202 x_64) ?v_199)) (?v_213 (and (and ?v_204 ?v_201) ?v_199))) (let ((?v_231 (or ?v_208 (and (or (or ?v_203 x_64) ?v_199) (or ?v_209 (and (or (or ?v_205 ?v_201) x_65) (or ?v_211 (and (or (or ?v_203 ?v_201) x_65) (or ?v_213 (and (and (and (and (or (or ?v_205 x_64) x_65) x_62) ?v_200) ?v_201) ?v_199))))))))) (?v_236 (not ?v_226)) (?v_260 (not ?v_252)) (?v_232 (not ?v_222)) (?v_218 (= x_61 true)) (?v_238 (not ?v_228)) (?v_258 (not x_20)) (?v_27 (not x_155)) (?v_12 (not x_182))) (let ((?v_14 (and ?v_12 ?v_2)) (?v_16 (and ?v_12 x_183))) (let ((?v_17 (ite ?v_10 4 (ite (and (and ?v_14 ?v_3) x_185) 4 (ite ?v_11 3 (ite (and (and ?v_16 x_184) ?v_1) 3 (ite ?v_13 2 (ite (and (and ?v_14 x_184) ?v_1) 2 (ite ?v_15 1 (ite (and (and ?v_16 ?v_3) ?v_1) 1 0))))))))) (?v_35 (not x_174)) (?v_33 (not x_176)) (?v_36 (not x_175)) (?v_57 (not x_153)) (?v_53 (not x_171)) (?v_59 (not x_162)) (?v_83 (not x_142))) (let ((?v_85 (and ?v_83 ?v_73)) (?v_87 (and ?v_83 x_143))) (let ((?v_88 (ite ?v_81 4 (ite (and (and ?v_85 ?v_74) x_145) 4 (ite ?v_82 3 (ite (and (and ?v_87 x_144) ?v_72) 3 (ite ?v_84 2 (ite (and (and ?v_85 x_144) ?v_72) 2 (ite ?v_86 1 (ite (and (and ?v_87 ?v_74) ?v_72) 1 0))))))))) (?v_103 (not x_134)) (?v_101 (not x_136)) (?v_104 (not x_135)) (?v_122 (not x_113)) (?v_146 (not x_102))) (let ((?v_148 (and ?v_146 ?v_136)) (?v_150 (and ?v_146 x_103))) (let ((?v_151 (ite ?v_144 4 (ite (and (and ?v_148 ?v_137) x_105) 4 (ite ?v_145 3 (ite (and (and ?v_150 x_104) ?v_135) 3 (ite ?v_147 2 (ite (and (and ?v_148 x_104) ?v_135) 2 (ite ?v_149 1 (ite (and (and ?v_150 ?v_137) ?v_135) 1 0))))))))) (?v_166 (not x_94)) (?v_164 (not x_96)) (?v_167 (not x_95)) (?v_185 (not x_73)) (?v_210 (not x_62))) (let ((?v_212 (and ?v_210 ?v_200)) (?v_214 (and ?v_210 x_63))) (let ((?v_215 (ite ?v_208 4 (ite (and (and ?v_212 ?v_201) x_65) 4 (ite ?v_209 3 (ite (and (and ?v_214 x_64) ?v_199) 3 (ite ?v_211 2 (ite (and (and ?v_212 x_64) ?v_199) 2 (ite ?v_213 1 (ite (and (and ?v_214 ?v_201) ?v_199) 1 0))))))))) (?v_229 (not x_54)) (?v_227 (not x_56)) (?v_230 (not x_55)) (?v_248 (not x_33)) (?v_264 (not x_2)) (?v_263 (not x_3)) (?v_262 (not x_4)) (?v_261 (not x_11))) (and (and (and (and (and (and (and (and (and (and (and (and (and (and (and (and (and (and (and (and (and (and (and (and (and (and (and (and (and (and (and (and (and (and (and (and (and (and (and (and (and (and (and (and (and (and (and (and (and (and (and (and (and (and (and (and (and (and (and (not x_0) true) (not x_1)) (and (and (= x_2 x_5) (= x_3 x_6)) (= x_4 x_7))) (not x_8)) (= x_9 x_10)) ?v_261) true) (= x_12 0)) (= x_13 0)) (= x_14 0)) (and ?v_197 ?v_198)) (not x_17)) true) (not x_18)) (= x_19 x_10)) ?v_258) (= x_21 x_10)) (= x_22 0)) (and ?v_239 x_24)) (not x_25)) (= x_26 x_10)) (not x_27)) (= x_28 x_10)) (= x_29 0)) (= x_30 0)) (and x_31 ?v_249)) (or (or (or (or (or (or (or (or (and (and (and (and (and (and (and (and (and (and (and (and (= x_186 0) ?v_19) ?v_0) x_178) ?v_20) x_160) (= x_161 x_179)) ?v_21) ?v_8) ?v_9) (= x_180 x_179)) ?v_18) ?v_23) (and (and (and (and (and (and (and (and (and (and (and (and (= x_186 1) x_115) ?v_0) ?v_37) ?v_27) x_156) ?v_8) ?v_26) ?v_29) ?v_9) (= x_168 (+ x_128 (* (ite (= ?v_17 4) 20 (ite (= ?v_17 3) 10 (ite (= ?v_17 2) 5 (ite (= ?v_17 1) 2 1)))) 10)))) ?v_22) ?v_18)) (and (and (and (and (and (and (and (and (and (and (and (= x_186 2) ?v_24) ?v_25) ?v_20) ?v_21) x_160) (= x_161 (- x_140 x_128))) ?v_8) ?v_9) ?v_22) ?v_18) ?v_23)) (and (and (and (and (and (and (and (and (and (and (and (= x_186 3) ?v_24) ?v_38) ?v_31) x_160) (= x_161 0)) x_177) ?v_8) ?v_26) (= x_164 (- x_128 x_140))) ?v_22) ?v_23)) (and (and (and (and (and (and (and (and (and (and (and (= x_186 4) ?v_30) ?v_40) ?v_27) ?v_28) ?v_8) ?v_26) ?v_29) ?v_9) (= x_168 0)) (= x_164 0)) (= x_180 0))) (and (and (and (and (and (and (and (and (and (and (and (and (and (= x_186 5) ?v_30) ?v_42) ?v_31) x_173) ?v_35) x_175) ?v_33) ?v_26) ?v_29) ?v_9) (= x_164 (- x_124 50))) ?v_22) ?v_23)) (and (and (and (and (and (and (and (and (and (and (and (and (and (and (= x_186 6) ?v_30) ?v_44) ?v_32) ?v_31) x_173) x_174) ?v_36) ?v_33) ?v_26) ?v_29) ?v_9) (= x_164 (- x_124 20))) ?v_22) ?v_23)) (and (and (and (and (and (and (and (and (and (and (and (and (and (and (= x_186 7) ?v_30) (not ?v_43)) ?v_34) ?v_31) x_173) ?v_35) ?v_36) ?v_33) ?v_26) ?v_29) ?v_9) (= x_164 (- x_124 10))) ?v_22) ?v_23)) (and (and (and (and (and (and (and (and (and (and (and (and (and (and (and (and (and (= x_186 8) (or (or x_115 x_116) (not x_178))) (or (or ?v_19 x_116) (not ?v_37))) (or ?v_39 ?v_38)) (or ?v_39 ?v_25)) (or ?v_41 (not ?v_40))) (or ?v_41 ?v_32)) (or (or ?v_41 ?v_34) ?v_42)) (or (or ?v_41 ?v_43) ?v_44)) ?v_26) ?v_8) ?v_29) ?v_9) (= x_155 x_115)) (= x_156 x_116)) ?v_22) ?v_18) ?v_23))) (or (or (or (or (and (and (and (and (and (and (and (and (= x_187 0) ?v_52) ?v_45) x_188) ?v_46) ?v_47) ?v_50) ?v_48) (= x_159 x_189)) (and (and (and (and (and (and (and (and (and (= x_187 1) ?v_49) ?v_57) ?v_55) ?v_46) x_165) (= x_166 x_119)) ?v_47) ?v_48) ?v_51)) (and (and (and (and (and (and (and (and (and (= x_187 2) ?v_49) x_153) ?v_53) x_172) x_169) (= x_170 x_154)) ?v_47) ?v_50) ?v_51)) (and (and (and (and (and (and (and (and (= x_187 3) ?v_52) x_132) ?v_53) ?v_54) x_167) ?v_50) ?v_48) ?v_51)) (and (and (and (and (and (and (and (and (and (and (= x_187 4) (or (or x_131 x_132) (not x_188))) (or (or ?v_56 x_153) (not ?v_55))) (or ?v_56 ?v_57)) (or x_131 ?v_45)) ?v_47) ?v_48) ?v_50) (= x_171 x_131)) (= x_172 x_132)) ?v_51))) (or (or (or (or (and (and (and (and (and (and (and (and (and (and (= x_190 0) x_122) ?v_58) x_125) x_191) ?v_59) ?v_63) ?v_64) ?v_60) (= x_158 x_192)) (= x_157 x_126)) (and (and (and (and (and (and (and (and (and (= x_190 1) ?v_61) ?v_70) ?v_59) x_163) x_178) (= x_179 (* (- x_118 x_117) 10))) ?v_60) ?v_65) ?v_66)) (and (and (and (and (and (and (and (and (= x_190 2) ?v_61) ?v_62) ?v_68) x_153) (= x_154 x_117)) ?v_64) ?v_65) ?v_66)) (and (and (and (and (and (and (and (and (and (= x_190 3) ?v_67) x_123) x_137) ?v_68) x_153) (= x_154 (+ x_118 10))) ?v_64) ?v_65) ?v_66)) (and (and (and (and (and (and (and (and (and (and (= x_190 4) (or (or (or ?v_67 x_123) (not x_125)) (not x_191))) (or ?v_69 ?v_62)) (or ?v_69 ?v_70)) (or (or x_122 ?v_58) (not x_137))) ?v_60) ?v_64) (= x_162 x_122)) (= x_163 x_123)) ?v_65) ?v_66))) (or (or (or (or (or (or (or (or (and (and (and (and (and (and (and (and (and (and (and (and (= x_146 0) ?v_90) ?v_71) x_138) ?v_91) x_120) (= x_121 x_139)) ?v_92) ?v_79) ?v_80) (= x_140 x_139)) ?v_89) ?v_94) (and (and (and (and (and (and (and (and (and (and (and (and (= x_146 1) x_75) ?v_71) ?v_105) ?v_19) x_116) ?v_79) ?v_97) ?v_98) ?v_80) (= x_128 (+ x_88 (* (ite (= ?v_88 4) 20 (ite (= ?v_88 3) 10 (ite (= ?v_88 2) 5 (ite (= ?v_88 1) 2 1)))) 10)))) ?v_93) ?v_89)) (and (and (and (and (and (and (and (and (and (and (and (= x_146 2) ?v_95) ?v_96) ?v_91) ?v_92) x_120) (= x_121 (- x_100 x_88))) ?v_79) ?v_80) ?v_93) ?v_89) ?v_94)) (and (and (and (and (and (and (and (and (and (and (and (= x_146 3) ?v_95) ?v_106) ?v_30) x_120) (= x_121 0)) x_137) ?v_79) ?v_97) (= x_124 (- x_88 x_100))) ?v_93) ?v_94)) (and (and (and (and (and (and (and (and (and (and (and (= x_146 4) ?v_99) ?v_108) ?v_19) ?v_0) ?v_79) ?v_97) ?v_98) ?v_80) (= x_128 0)) (= x_124 0)) (= x_140 0))) (and (and (and (and (and (and (and (and (and (and (and (and (and (= x_146 5) ?v_99) ?v_110) ?v_30) x_133) ?v_103) x_135) ?v_101) ?v_97) ?v_98) ?v_80) (= x_124 (- x_84 50))) ?v_93) ?v_94)) (and (and (and (and (and (and (and (and (and (and (and (and (and (and (= x_146 6) ?v_99) ?v_112) ?v_100) ?v_30) x_133) x_134) ?v_104) ?v_101) ?v_97) ?v_98) ?v_80) (= x_124 (- x_84 20))) ?v_93) ?v_94)) (and (and (and (and (and (and (and (and (and (and (and (and (and (and (= x_146 7) ?v_99) (not ?v_111)) ?v_102) ?v_30) x_133) ?v_103) ?v_104) ?v_101) ?v_97) ?v_98) ?v_80) (= x_124 (- x_84 10))) ?v_93) ?v_94)) (and (and (and (and (and (and (and (and (and (and (and (and (and (and (and (and (and (= x_146 8) (or (or x_75 x_76) (not x_138))) (or (or ?v_90 x_76) (not ?v_105))) (or ?v_107 ?v_106)) (or ?v_107 ?v_96)) (or ?v_109 (not ?v_108))) (or ?v_109 ?v_100)) (or (or ?v_109 ?v_102) ?v_110)) (or (or ?v_109 ?v_111) ?v_112)) ?v_97) ?v_79) ?v_98) ?v_80) (= x_115 x_75)) (= x_116 x_76)) ?v_93) ?v_89) ?v_94))) (or (or (or (or (and (and (and (and (and (and (and (and (= x_147 0) ?v_119) ?v_113) x_148) ?v_49) ?v_114) ?v_117) ?v_115) (= x_119 x_149)) (and (and (and (and (and (and (and (and (and (= x_147 1) ?v_116) ?v_122) ?v_120) ?v_49) x_125) (= x_126 x_79)) ?v_114) ?v_115) ?v_118)) (and (and (and (and (and (and (and (and (and (= x_147 2) ?v_116) x_113) ?v_52) x_132) x_129) (= x_130 x_114)) ?v_114) ?v_117) ?v_118)) (and (and (and (and (and (and (and (and (= x_147 3) ?v_119) x_92) ?v_52) ?v_45) x_127) ?v_117) ?v_115) ?v_118)) (and (and (and (and (and (and (and (and (and (and (= x_147 4) (or (or x_91 x_92) (not x_148))) (or (or ?v_121 x_113) (not ?v_120))) (or ?v_121 ?v_122)) (or x_91 ?v_113)) ?v_114) ?v_115) ?v_117) (= x_131 x_91)) (= x_132 x_92)) ?v_118))) (or (or (or (or (and (and (and (and (and (and (and (and (and (and (= x_150 0) x_82) ?v_123) x_85) x_151) ?v_67) ?v_58) ?v_127) ?v_124) (= x_118 x_152)) (= x_117 x_86)) (and (and (and (and (and (and (and (and (and (= x_150 1) ?v_125) ?v_133) ?v_67) x_123) x_138) (= x_139 (* (- x_78 x_77) 10))) ?v_124) ?v_128) ?v_129)) (and (and (and (and (and (and (and (and (= x_150 2) ?v_125) ?v_126) ?v_131) x_113) (= x_114 x_77)) ?v_127) ?v_128) ?v_129)) (and (and (and (and (and (and (and (and (and (= x_150 3) ?v_130) x_83) x_97) ?v_131) x_113) (= x_114 (+ x_78 10))) ?v_127) ?v_128) ?v_129)) (and (and (and (and (and (and (and (and (and (and (= x_150 4) (or (or (or ?v_130 x_83) (not x_85)) (not x_151))) (or ?v_132 ?v_126)) (or ?v_132 ?v_133)) (or (or x_82 ?v_123) (not x_97))) ?v_124) ?v_127) (= x_122 x_82)) (= x_123 x_83)) ?v_128) ?v_129))) (or (or (or (or (or (or (or (or (and (and (and (and (and (and (and (and (and (and (and (and (= x_106 0) ?v_153) ?v_134) x_98) ?v_154) x_80) (= x_81 x_99)) ?v_155) ?v_142) ?v_143) (= x_100 x_99)) ?v_152) ?v_157) (and (and (and (and (and (and (and (and (and (and (and (and (= x_106 1) x_35) ?v_134) ?v_168) ?v_90) x_76) ?v_142) ?v_160) ?v_161) ?v_143) (= x_88 (+ x_48 (* (ite (= ?v_151 4) 20 (ite (= ?v_151 3) 10 (ite (= ?v_151 2) 5 (ite (= ?v_151 1) 2 1)))) 10)))) ?v_156) ?v_152)) (and (and (and (and (and (and (and (and (and (and (and (= x_106 2) ?v_158) ?v_159) ?v_154) ?v_155) x_80) (= x_81 (- x_60 x_48))) ?v_142) ?v_143) ?v_156) ?v_152) ?v_157)) (and (and (and (and (and (and (and (and (and (and (and (= x_106 3) ?v_158) ?v_169) ?v_99) x_80) (= x_81 0)) x_97) ?v_142) ?v_160) (= x_84 (- x_48 x_60))) ?v_156) ?v_157)) (and (and (and (and (and (and (and (and (and (and (and (= x_106 4) ?v_162) ?v_171) ?v_90) ?v_71) ?v_142) ?v_160) ?v_161) ?v_143) (= x_88 0)) (= x_84 0)) (= x_100 0))) (and (and (and (and (and (and (and (and (and (and (and (and (and (= x_106 5) ?v_162) ?v_173) ?v_99) x_93) ?v_166) x_95) ?v_164) ?v_160) ?v_161) ?v_143) (= x_84 (- x_44 50))) ?v_156) ?v_157)) (and (and (and (and (and (and (and (and (and (and (and (and (and (and (= x_106 6) ?v_162) ?v_175) ?v_163) ?v_99) x_93) x_94) ?v_167) ?v_164) ?v_160) ?v_161) ?v_143) (= x_84 (- x_44 20))) ?v_156) ?v_157)) (and (and (and (and (and (and (and (and (and (and (and (and (and (and (= x_106 7) ?v_162) (not ?v_174)) ?v_165) ?v_99) x_93) ?v_166) ?v_167) ?v_164) ?v_160) ?v_161) ?v_143) (= x_84 (- x_44 10))) ?v_156) ?v_157)) (and (and (and (and (and (and (and (and (and (and (and (and (and (and (and (and (and (= x_106 8) (or (or x_35 x_36) (not x_98))) (or (or ?v_153 x_36) (not ?v_168))) (or ?v_170 ?v_169)) (or ?v_170 ?v_159)) (or ?v_172 (not ?v_171))) (or ?v_172 ?v_163)) (or (or ?v_172 ?v_165) ?v_173)) (or (or ?v_172 ?v_174) ?v_175)) ?v_160) ?v_142) ?v_161) ?v_143) (= x_75 x_35)) (= x_76 x_36)) ?v_156) ?v_152) ?v_157))) (or (or (or (or (and (and (and (and (and (and (and (and (= x_107 0) ?v_182) ?v_176) x_108) ?v_116) ?v_177) ?v_180) ?v_178) (= x_79 x_109)) (and (and (and (and (and (and (and (and (and (= x_107 1) ?v_179) ?v_185) ?v_183) ?v_116) x_85) (= x_86 x_39)) ?v_177) ?v_178) ?v_181)) (and (and (and (and (and (and (and (and (and (= x_107 2) ?v_179) x_73) ?v_119) x_92) x_89) (= x_90 x_74)) ?v_177) ?v_180) ?v_181)) (and (and (and (and (and (and (and (and (= x_107 3) ?v_182) x_52) ?v_119) ?v_113) x_87) ?v_180) ?v_178) ?v_181)) (and (and (and (and (and (and (and (and (and (and (= x_107 4) (or (or x_51 x_52) (not x_108))) (or (or ?v_184 x_73) (not ?v_183))) (or ?v_184 ?v_185)) (or x_51 ?v_176)) ?v_177) ?v_178) ?v_180) (= x_91 x_51)) (= x_92 x_52)) ?v_181))) (or (or (or (or (and (and (and (and (and (and (and (and (and (and (= x_110 0) x_42) ?v_186) x_45) x_111) ?v_130) ?v_123) ?v_190) ?v_187) (= x_78 x_112)) (= x_77 x_46)) (and (and (and (and (and (and (and (and (and (= x_110 1) ?v_188) ?v_196) ?v_130) x_83) x_98) (= x_99 (* (- x_38 x_37) 10))) ?v_187) ?v_191) ?v_192)) (and (and (and (and (and (and (and (and (= x_110 2) ?v_188) ?v_189) ?v_194) x_73) (= x_74 x_37)) ?v_190) ?v_191) ?v_192)) (and (and (and (and (and (and (and (and (and (= x_110 3) ?v_193) x_43) x_57) ?v_194) x_73) (= x_74 (+ x_38 10))) ?v_190) ?v_191) ?v_192)) (and (and (and (and (and (and (and (and (and (and (= x_110 4) (or (or (or ?v_193 x_43) (not x_45)) (not x_111))) (or ?v_195 ?v_189)) (or ?v_195 ?v_196)) (or (or x_42 ?v_186) (not x_57))) ?v_187) ?v_190) (= x_82 x_42)) (= x_83 x_43)) ?v_191) ?v_192))) (or (or (or (or (or (or (or (or (and (and (and (and (and (and (and (and (and (and (and (and (= x_66 0) ?v_197) ?v_198) x_58) ?v_217) x_40) (= x_41 x_59)) ?v_218) ?v_206) ?v_207) (= x_60 x_59)) ?v_216) ?v_220) (and (and (and (and (and (and (and (and (and (and (and (and (= x_66 1) x_15) ?v_198) ?v_231) ?v_153) x_36) ?v_206) ?v_223) ?v_224) ?v_207) (= x_48 (+ x_13 (* (ite (= ?v_215 4) 20 (ite (= ?v_215 3) 10 (ite (= ?v_215 2) 5 (ite (= ?v_215 1) 2 1)))) 10)))) ?v_219) ?v_216)) (and (and (and (and (and (and (and (and (and (and (and (= x_66 2) ?v_221) ?v_222) ?v_217) ?v_218) x_40) (= x_41 (- x_14 x_13))) ?v_206) ?v_207) ?v_219) ?v_216) ?v_220)) (and (and (and (and (and (and (and (and (and (and (and (= x_66 3) ?v_221) ?v_232) ?v_162) x_40) (= x_41 0)) x_57) ?v_206) ?v_223) (= x_44 (- x_13 x_14))) ?v_219) ?v_220)) (and (and (and (and (and (and (and (and (and (and (and (= x_66 4) ?v_225) ?v_234) ?v_153) ?v_134) ?v_206) ?v_223) ?v_224) ?v_207) (= x_48 0)) (= x_44 0)) (= x_60 0))) (and (and (and (and (and (and (and (and (and (and (and (and (and (= x_66 5) ?v_225) ?v_236) ?v_162) x_53) ?v_229) x_55) ?v_227) ?v_223) ?v_224) ?v_207) (= x_44 (- x_12 50))) ?v_219) ?v_220)) (and (and (and (and (and (and (and (and (and (and (and (and (and (and (= x_66 6) ?v_225) ?v_238) ?v_226) ?v_162) x_53) x_54) ?v_230) ?v_227) ?v_223) ?v_224) ?v_207) (= x_44 (- x_12 20))) ?v_219) ?v_220)) (and (and (and (and (and (and (and (and (and (and (and (and (and (and (= x_66 7) ?v_225) (not ?v_237)) ?v_228) ?v_162) x_53) ?v_229) ?v_230) ?v_227) ?v_223) ?v_224) ?v_207) (= x_44 (- x_12 10))) ?v_219) ?v_220)) (and (and (and (and (and (and (and (and (and (and (and (and (and (and (and (and (and (= x_66 8) (or (or x_15 x_16) (not x_58))) (or (or ?v_197 x_16) (not ?v_231))) (or ?v_233 ?v_232)) (or ?v_233 ?v_222)) (or ?v_235 (not ?v_234))) (or ?v_235 ?v_226)) (or (or ?v_235 ?v_228) ?v_236)) (or (or ?v_235 ?v_237) ?v_238)) ?v_223) ?v_206) ?v_224) ?v_207) (= x_35 x_15)) (= x_36 x_16)) ?v_219) ?v_216) ?v_220))) (or (or (or (or (and (and (and (and (and (and (and (and (= x_67 0) ?v_239) ?v_240) x_68) ?v_179) ?v_241) ?v_244) ?v_242) (= x_39 x_69)) (and (and (and (and (and (and (and (and (and (= x_67 1) ?v_243) ?v_248) ?v_246) ?v_179) x_45) (= x_46 x_22)) ?v_241) ?v_242) ?v_245)) (and (and (and (and (and (and (and (and (and (= x_67 2) ?v_243) x_33) ?v_182) x_52) x_49) (= x_50 x_34)) ?v_241) ?v_244) ?v_245)) (and (and (and (and (and (and (and (and (= x_67 3) ?v_239) x_24) ?v_182) ?v_176) x_47) ?v_244) ?v_242) ?v_245)) (and (and (and (and (and (and (and (and (and (and (= x_67 4) (or (or x_23 x_24) (not x_68))) (or (or ?v_247 x_33) (not ?v_246))) (or ?v_247 ?v_248)) (or x_23 ?v_240)) ?v_241) ?v_242) ?v_244) (= x_51 x_23)) (= x_52 x_24)) ?v_245))) (or (or (or (or (and (and (and (and (and (and (and (and (and (and (= x_70 0) x_31) ?v_249) x_20) x_71) ?v_193) ?v_186) ?v_253) ?v_250) (= x_38 x_72)) (= x_37 x_21)) (and (and (and (and (and (and (and (and (and (= x_70 1) ?v_251) ?v_260) ?v_193) x_43) x_58) (= x_59 (* (- x_29 x_30) 10))) ?v_250) ?v_254) ?v_255)) (and (and (and (and (and (and (and (and (= x_70 2) ?v_251) ?v_252) ?v_257) x_33) (= x_34 x_30)) ?v_253) ?v_254) ?v_255)) (and (and (and (and (and (and (and (and (and (= x_70 3) ?v_256) x_32) x_11) ?v_257) x_33) (= x_34 (+ x_29 10))) ?v_253) ?v_254) ?v_255)) (and (and (and (and (and (and (and (and (and (and (= x_70 4) (or (or (or ?v_256 x_32) ?v_258) (not x_71))) (or ?v_259 ?v_252)) (or ?v_259 ?v_260)) (or (or x_31 ?v_249) ?v_261)) ?v_250) ?v_253) (= x_42 x_31)) (= x_43 x_32)) ?v_254) ?v_255))) (or (or (or (or (and (and (and x_173 ?v_35) ?v_36) ?v_33) (and (and (and x_133 ?v_103) ?v_104) ?v_101)) (and (and (and x_93 ?v_166) ?v_167) ?v_164)) (and (and (and x_53 ?v_229) ?v_230) ?v_227)) (and (and (and x_1 ?v_264) ?v_263) ?v_262))) (or ?v_262 (and ?v_263 ?v_264))) (or (not x_7) (and (not x_6) (not x_5)))) (or ?v_240 ?v_239)) (or ?v_249 ?v_256)) (or ?v_186 ?v_193)) (or ?v_176 ?v_182)) (or ?v_227 (and ?v_230 ?v_229))) (or ?v_199 (and ?v_201 ?v_200))) (or ?v_123 ?v_130)) (or ?v_113 ?v_119)) (or ?v_164 (and ?v_167 ?v_166))) (or ?v_135 (and ?v_137 ?v_136))) (or ?v_58 ?v_67)) (or ?v_45 ?v_52)) (or ?v_101 (and ?v_104 ?v_103))) (or ?v_72 (and ?v_74 ?v_73))) (or ?v_63 ?v_59)) (or ?v_54 ?v_53)) (or ?v_33 (and ?v_36 ?v_35))) (or ?v_1 (and ?v_3 ?v_2))))))))))))))))))))))))))))))))))))))))))))))))))))))))
(check-sat)
(exit)
